rc101_3
0 95 70 57 29 27 25 54 24 23 53 26 28 30 82 63 80 102 64 92 79 91 14 18 20 21 22 52 19 17 15 16 2 83 78 84 12 13 51 9 50 10 8 6 7 11 65 58 93 60 105 75 46 44 43 42 40 41 45 48 49 47 1 66 77 76 36 34 32 31 33 35 0